; input_dword_2
(declare-fun c () (_ BitVec 32))
(let ((?x1558 (concat ((_ extract 31 30) (bvadd (_ bv1210289743 32) (bvnot c))) (bvnot ((_ extract 29 27) (bvadd (_ bv1210289743 32) (bvnot c)))) ((_ extract 26 24) (bvadd (_ bv1210289743 32) (bvnot c))) (bvnot ((_ extract 23 22) (bvadd (_ bv1210289743 32) (bvnot c)))) ((_ extract 21 17) (bvadd (_ bv1210289743 32) (bvnot c))) (bvnot ((_ extract 16 9) (bvadd (_ bv1210289743 32) (bvnot c)))) ((_ extract 8 8) (bvadd (_ bv1210289743 32) (bvnot c))) (bvnot ((_ extract 7 7) (bvadd (_ bv1210289743 32) (bvnot c)))) ((_ extract 6 6) (bvadd (_ bv1210289743 32) (bvnot c))) (bvnot ((_ extract 5 3) (bvadd (_ bv1210289743 32) (bvnot c)))) (bvadd (_ bv7 3) (bvnot ((_ extract 2 0) c))))))
(let ((?x1521 (bvadd (_ bv121107096 32) ?x1558)))
(let ((?x1529 (concat ((_ extract 27 2) ?x1521) (bvnot ((_ extract 1 1) ?x1521)) (bvadd (_ bv1 1) (bvnot ((_ extract 0 0) c))) ((_ extract 31 28) ?x1521))))
(let ((?x1571 (bvadd (_ bv4294967294 32) ?x1529)))
(let ((?x1577 ((_ extract 3 3) ?x1571)))
(let ((?x1601 (bvnot ((_ extract 5 4) ?x1571))))
(let ((?x1678 ((_ extract 7 6) ?x1571)))
(let ((?x1620 (bvnot ((_ extract 8 8) ?x1571))))
(let ((?x1656 (bvnot ((_ extract 9 9) ?x1571))))
(let ((?x1584 ((_ extract 11 10) ?x1571)))
(let ((?x1594 (bvnot ((_ extract 12 12) ?x1571))))
(let ((?x1423 ((_ extract 14 13) ?x1571)))
(let ((?x1674 (bvnot ((_ extract 15 15) ?x1571))))
(let ((?x1670 ((_ extract 16 16) ?x1571)))
(let ((?x1622 (bvnot ((_ extract 18 17) ?x1571))))
(let ((?x1631 ((_ extract 19 19) ?x1571)))
(let ((?x1662 (bvnot ((_ extract 20 20) ?x1571))))
(let ((?x1618 ((_ extract 21 21) ?x1571)))
(let ((?x1663 (bvnot ((_ extract 22 22) ?x1571))))
(let ((?x1605 (concat ((_ extract 23 23) ?x1571) ?x1663 ?x1618 ?x1662 ?x1631 ?x1622 ?x1670 ?x1674 ?x1423 ?x1594 ?x1584 ?x1656 ?x1620 ?x1678 ?x1601 ?x1577)))
(let ((?x1606 (bvadd (_ bv2 21) ?x1605)))
(let ((?x1560 ((_ extract 6 6) ?x1606)))
(let ((?x1613 (concat ((_ extract 29 28) ?x1571) (bvnot ((_ extract 27 27) ?x1571)) ((_ extract 26 26) ?x1571) (bvnot ((_ extract 25 25) ?x1571)) ((_ extract 24 23) ?x1571) ?x1663 ?x1618 ?x1662 ?x1631 ?x1622 ?x1670 ?x1674 ?x1423 ?x1594 ?x1584 ?x1656 ?x1620 ?x1678 ?x1601 ?x1577)))
(let ((?x1591 (concat (bvnot ((_ extract 2 1) (bvadd (_ bv6 3) ((_ extract 30 28) ?x1521)))) ((_ extract 28 28) ?x1521) (bvnot ((_ extract 31 31) ?x1571)) ((_ extract 30 28) ?x1571) (bvnot ((_ extract 27 27) ?x1571)) ((_ extract 26 26) ?x1571) (bvnot ((_ extract 25 25) ?x1571)) ((_ extract 24 23) ?x1571) ?x1663 ?x1618 ?x1662 ?x1631 ?x1622 ?x1670 ?x1674 ?x1423 ?x1594 ?x1584 ?x1656 ?x1620 ?x1678 ?x1601 ?x1577)))
(let ((?x1561 (concat (bvadd (_ bv2 6) (concat ?x1620 ?x1678 ?x1601 ?x1577)) ((_ extract 31 27) (bvadd (_ bv2 32) ?x1591)) ((_ extract 26 21) (bvadd (_ bv2 27) ?x1613)) ((_ extract 20 11) ?x1606) (bvnot ((_ extract 10 10) ?x1606)) ((_ extract 9 8) ?x1606) (bvnot ((_ extract 7 7) ?x1606)) ?x1560)))
(let ((?x1585 (bvadd (_ bv2 32) ?x1561)))
(let ((?x1538 (concat ((_ extract 18 11) ?x1606) (bvnot ((_ extract 10 10) ?x1606)) ((_ extract 9 8) ?x1606) (bvnot ((_ extract 7 7) ?x1606)) ?x1560)))
(let ((?x1533 (bvadd (_ bv2 13) ?x1538)))
(let ((?x1714 (concat (bvnot ((_ extract 12 11) ?x1533)) ((_ extract 10 9) ?x1533) (bvnot ((_ extract 8 7) ?x1533)) ((_ extract 6 4) ?x1533) (bvnot ((_ extract 3 3) ?x1533)) ((_ extract 2 1) ?x1533) (bvnot ?x1560) (bvnot ((_ extract 31 30) ?x1585)) ((_ extract 29 28) ?x1585) (bvnot ((_ extract 27 27) ?x1585)) ((_ extract 26 26) ?x1585) (bvnot ((_ extract 25 23) ?x1585)) ((_ extract 22 22) ?x1585) (bvnot ((_ extract 21 20) ?x1585)) ((_ extract 19 18) ?x1585) (bvnot ((_ extract 17 17) ?x1585)) ((_ extract 16 16) ?x1585) (bvnot ((_ extract 15 15) ?x1585)) ((_ extract 14 13) ?x1585))))
(let ((?x1551 (bvadd (_ bv1092395833 32) (bvnot (bvadd (_ bv4294967294 32) ?x1714)))))
(let ((?x1668 (bvadd (_ bv1 3) (bvnot (bvadd (_ bv6 3) (concat (bvnot ((_ extract 15 15) ?x1585)) ((_ extract 14 13) ?x1585)))))))
(let ((?x1550 (bvadd (_ bv4294967294 32) (concat (bvnot ((_ extract 4 4) ?x1551)) ((_ extract 3 3) ?x1551) ?x1668 ((_ extract 31 5) ?x1551)))))
(let ((?x1693 (bvadd (_ bv1369234240 32) (concat ((_ extract 31 2) ?x1550) (bvnot ((_ extract 1 1) ?x1550)) ((_ extract 5 5) ?x1551)))))
(let ((?x1634 (bvadd (_ bv56128 16) (concat ((_ extract 15 2) ?x1550) (bvnot ((_ extract 1 1) ?x1550)) ((_ extract 5 5) ?x1551)))))
(let ((?x1650 (bvadd (_ bv4 32) (concat ?x1634 ((_ extract 31 18) ?x1693) (bvnot ((_ extract 17 17) ?x1693)) ((_ extract 16 16) ?x1693)))))
(let ((?x1684 (bvadd (_ bv2 26) (bvnot ((_ extract 27 2) ?x1650)))))
(let ((?x1590 ((_ extract 25 8) ?x1684)))
(let ((?x1627 (bvadd (_ bv2 32) (concat ((_ extract 17 17) ?x1693) (bvnot ((_ extract 16 16) ?x1693)) (bvnot ((_ extract 31 2) ?x1650))))))
(let ((?x1526 ((_ extract 31 26) ?x1627)))
(let ((?x1709 ((_ extract 31 29) (bvadd (_ bv2 32) (concat (bvadd (_ bv2 8) (bvnot ((_ extract 9 2) ?x1650))) ?x1526 ?x1590)))))
(let ((?x1639 (bvnot ?x1709)))
(let ((?x1728 (bvnot (bvadd (_ bv2 29) (concat (bvadd (_ bv2 5) (bvnot ((_ extract 6 2) ?x1650))) ?x1526 ?x1590)))))
(let ((?x1718 (bvnot ((_ extract 31 27) (bvadd (_ bv422262740 32) (concat ?x1728 ?x1639))))))
(let ((?x1741 (bvnot (bvadd (_ bv19609556 27) (concat (bvnot (bvadd (_ bv2 24) (concat ?x1526 ?x1590))) ?x1639)))))
(let ((?x1763 (concat (bvnot (bvadd (_ bv14292 16) (concat (bvnot (bvadd (_ bv2 13) ((_ extract 20 8) ?x1684))) ?x1639))) ?x1718)))
(let ((?x1765 (bvadd (_ bv3499560052 32) (concat (bvadd (_ bv1911749 21) ?x1763) ((_ extract 31 21) (bvadd (_ bv2279418821 32) (concat ?x1741 ?x1718)))))))
(let ((?x1788 (concat (bvnot (bvadd (_ bv4 4) (concat (bvnot ((_ extract 8 8) ?x1684)) ?x1639))) ?x1718)))
(let ((?x1791 (bvadd (_ bv461940 20) (concat (bvadd (_ bv453 9) ?x1788) ((_ extract 31 21) (bvadd (_ bv2279418821 32) (concat ?x1741 ?x1718)))))))
(let ((?x1687 (bvadd (_ bv4294967294 32) (concat (bvadd (_ bv404317 20) (bvnot ?x1791)) ((_ extract 31 20) (bvadd (_ bv2036738909 32) (bvnot ?x1765)))))))
(let ((?x1776 (concat (bvadd (_ bv6 3) ((_ extract 22 20) (bvadd (_ bv2036738909 32) (bvnot ?x1765)))) ((_ extract 31 3) ?x1687))))
(let ((?x1742 (bvadd (_ bv3690608453 32) ?x1776)))
(let ((?x1815 (concat ((_ extract 31 30) ?x1742) (bvnot ((_ extract 29 26) ?x1742)) ((_ extract 25 25) ?x1742) (bvnot ((_ extract 24 24) ?x1742)) ((_ extract 23 23) ?x1742) (bvnot ((_ extract 22 21) ?x1742)) ((_ extract 20 20) ?x1742) (bvnot ((_ extract 19 19) ?x1742)) ((_ extract 18 16) ?x1742) (bvnot ((_ extract 15 15) ?x1742)) ((_ extract 14 14) ?x1742) (bvnot ((_ extract 13 13) ?x1742)) ((_ extract 12 10) ?x1742) (bvnot ((_ extract 9 8) ?x1742)) ((_ extract 7 7) ?x1742) (bvnot ((_ extract 6 6) ?x1742)) ((_ extract 5 5) ?x1742) (bvnot ((_ extract 4 2) ?x1742)) (bvadd (_ bv1 2) ((_ extract 4 3) ?x1687)))))
(let ((?x1743 (bvadd (_ bv4113102242 32) ?x1815)))
(let ((?x1769 (concat ((_ extract 18 16) ?x1742) (bvnot ((_ extract 15 15) ?x1742)) ((_ extract 14 14) ?x1742) (bvnot ((_ extract 13 13) ?x1742)) ((_ extract 12 10) ?x1742) (bvnot ((_ extract 9 8) ?x1742)) ((_ extract 7 7) ?x1742) (bvnot ((_ extract 6 6) ?x1742)) ((_ extract 5 5) ?x1742) (bvnot ((_ extract 4 2) ?x1742)) (bvadd (_ bv1 2) ((_ extract 4 3) ?x1687)))))
(let ((?x1771 (bvadd (_ bv62882 19) ?x1769)))
(let ((?x1867 (concat (bvnot ((_ extract 18 18) ?x1771)) ((_ extract 17 17) ?x1771) (bvnot ((_ extract 16 9) ?x1771)) ((_ extract 8 8) ?x1771) (bvnot ((_ extract 7 6) ?x1771)) ((_ extract 5 4) ?x1771) (bvnot ((_ extract 3 2) ?x1771)) (bvadd (_ bv3 2) ((_ extract 4 3) ?x1687)) (bvnot ((_ extract 31 31) ?x1743)) ((_ extract 30 28) ?x1743) (bvnot ((_ extract 27 26) ?x1743)) ((_ extract 25 25) ?x1743) (bvnot ((_ extract 24 24) ?x1743)) ((_ extract 23 19) ?x1743))))
(let ((?x1830 (bvadd (_ bv4294967294 32) (bvnot (bvadd (_ bv4294967294 32) ?x1867)))))
(concat (bvnot ((_ extract 31 30) ?x1830)) ((_ extract 29 29) ?x1830) (bvnot ((_ extract 28 28) ?x1830)) ((_ extract 27 26) ?x1830) (bvnot ((_ extract 25 25) ?x1830)) ((_ extract 24 24) ?x1830) (bvnot ((_ extract 23 20) ?x1830)) ((_ extract 19 18) ?x1830) (bvnot ((_ extract 17 12) ?x1830)) ((_ extract 11 9) ?x1830) (bvnot ((_ extract 8 7) ?x1830)) ((_ extract 6 3) ?x1830) (bvnot ((_ extract 2 2) ?x1830)) ((_ extract 1 1) ?x1830) (bvnot ((_ extract 19 19) ?x1743))))))))))))))))))))))))))))))))))))))))))))))))))))))))))))